feasible solution found by trivial heuristic after 0.1 seconds, objective value 0.000000e+00
presolving:
(round 1, fast)       9722 del vars, 3153 del conss, 0 add conss, 418 chg bounds, 0 chg sides, 0 chg coeffs, 0 upgd conss, 0 impls, 8344 clqs
(round 2, fast)       11586 del vars, 6116 del conss, 0 add conss, 418 chg bounds, 1150 chg sides, 0 chg coeffs, 0 upgd conss, 0 impls, 8344 clqs
   (0.2s) running MILP presolver
   (0.5s) MILP presolver (2 rounds): 0 aggregations, 2963 fixings, 0 bound changes
(round 3, medium)     14549 del vars, 21536 del conss, 12457 add conss, 418 chg bounds, 1150 chg sides, 0 chg coeffs, 0 upgd conss, 0 impls, 8344 clqs
(round 4, exhaustive) 14549 del vars, 23349 del conss, 12457 add conss, 418 chg bounds, 1150 chg sides, 0 chg coeffs, 0 upgd conss, 0 impls, 9494 clqs
(round 5, exhaustive) 14549 del vars, 23349 del conss, 12457 add conss, 418 chg bounds, 1150 chg sides, 0 chg coeffs, 10644 upgd conss, 0 impls, 9494 clqs
(round 6, fast)       14813 del vars, 23349 del conss, 12457 add conss, 418 chg bounds, 1150 chg sides, 0 chg coeffs, 10644 upgd conss, 0 impls, 9494 clqs
(round 7, fast)       14821 del vars, 23349 del conss, 12457 add conss, 418 chg bounds, 1150 chg sides, 264 chg coeffs, 10644 upgd conss, 0 impls, 9494 clqs
   (0.6s) running MILP presolver
   (0.6s) MILP presolver (2 rounds): 0 aggregations, 0 fixings, 0 bound changes
   (0.7s) probing: 51/1017 (5.0%) - 0 fixings, 0 aggregations, 0 implications, 0 bound changes
   (0.7s) probing aborted: 50/50 successive totally useless probings
   (0.8s) symmetry computation started: requiring (bin +, int -, cont +), (fixed: bin -, int +, cont -)
   (0.9s) no symmetry present
presolving (8 rounds: 8 fast, 4 medium, 3 exhaustive):
 14821 deleted vars, 23349 deleted constraints, 12457 added constraints, 418 tightened bounds, 0 added holes, 1150 changed sides, 272 changed coefficients
 0 implications, 9494 cliques
presolved problem has 1017 variables (1017 bin, 0 int, 0 impl, 0 cont) and 10644 constraints
   9494 constraints of type <setppc>
   1150 constraints of type <logicor>
Presolving Time: 0.85

 time | node  | left  |LP iter|LP it/n|mem/heur|mdpt |vars |cons |rows |cuts |sepa|confs|strbr|  dualbound   | primalbound  |  gap   | compl. 
t 0.9s|     1 |     0 |     0 |     - | trivial|   0 |1017 |  10k|   0 |   0 |  0 |   0 |   0 | 8.174729e+05 | 8.106109e+05 |   0.85%| unknown
p 1.0s|     1 |     0 |     0 |     - |   locks|   0 |1017 |  10k|  10k|   0 |  0 |   0 |   0 | 8.174729e+05 | 8.110509e+05 |   0.79%| unknown
i 1.0s|     1 |     0 |     0 |     - |  oneopt|   0 |1017 |  10k|  10k|   0 |  0 |   0 |   0 | 8.174729e+05 | 8.111129e+05 |   0.78%| unknown
  1.4s|     1 |     0 |  1074 |     - |   109M |   0 |1017 |  10k|  10k|   0 |  0 |   0 |   0 | 8.119716e+05 | 8.111129e+05 |   0.11%| unknown
  1.5s|     1 |     0 |  1202 |     - |   111M |   0 |1017 |  10k|  10k|   1 |  1 |   0 |   0 | 8.119658e+05 | 8.111129e+05 |   0.11%| unknown
  1.6s|     1 |     0 |  1286 |     - |   113M |   0 |1017 |  10k|  10k|   2 |  2 |   0 |   0 | 8.119642e+05 | 8.111129e+05 |   0.10%| unknown
  1.8s|     1 |     0 |  1425 |     - |   116M |   0 |1017 |  10k|  10k|   3 |  3 |   0 |   0 | 8.119634e+05 | 8.111129e+05 |   0.10%| unknown
  1.9s|     1 |     0 |  1544 |     - |   117M |   0 |1017 |  10k|  10k|   4 |  4 |   0 |   0 | 8.119627e+05 | 8.111129e+05 |   0.10%| unknown
  2.0s|     1 |     0 |  1648 |     - |   119M |   0 |1017 |  10k|  10k|   5 |  5 |   0 |   0 | 8.119623e+05 | 8.111129e+05 |   0.10%| unknown
  2.1s|     1 |     0 |  1753 |     - |   122M |   0 |1017 |  10k|  10k|   6 |  6 |   0 |   0 | 8.119618e+05 | 8.111129e+05 |   0.10%| unknown
r 2.1s|     1 |     0 |  1753 |     - |randroun|   0 |1017 |  10k|  10k|   0 |  6 |   0 |   0 | 8.119618e+05 | 8.111349e+05 |   0.10%| unknown
  2.2s|     1 |     0 |  1844 |     - |   123M |   0 |1017 |  10k|  10k|   7 |  7 |   0 |   0 | 8.119615e+05 | 8.111349e+05 |   0.10%| unknown
i 2.2s|     1 |     0 |  1844 |     - |  oneopt|   0 |1017 |  10k|  10k|   7 |  7 |   0 |   0 | 8.119615e+05 | 8.113589e+05 |   0.07%| unknown
  2.4s|     1 |     0 |  2015 |     - |   125M |   0 |1017 |  10k|  10k|   8 |  8 |   0 |   0 | 8.119611e+05 | 8.113589e+05 |   0.07%| unknown
  2.5s|     1 |     0 |  2214 |     - |   126M |   0 |1017 |  10k|  10k|   9 |  9 |   0 |   0 | 8.119608e+05 | 8.113589e+05 |   0.07%| unknown
 time | node  | left  |LP iter|LP it/n|mem/heur|mdpt |vars |cons |rows |cuts |sepa|confs|strbr|  dualbound   | primalbound  |  gap   | compl. 
  2.7s|     1 |     0 |  2347 |     - |   129M |   0 |1017 |  10k|  10k|  10 | 10 |   0 |   0 | 8.119604e+05 | 8.113589e+05 |   0.07%| unknown
  2.7s|     1 |     0 |  2433 |     - |   131M |   0 |1017 |  10k|  10k|  11 | 11 |   0 |   0 | 8.119603e+05 | 8.113589e+05 |   0.07%| unknown
  2.8s|     1 |     0 |  2537 |     - |   132M |   0 |1017 |  10k|  10k|  12 | 12 |   0 |   0 | 8.119602e+05 | 8.113589e+05 |   0.07%| unknown
  2.9s|     1 |     0 |  2574 |     - |   133M |   0 |1017 |  10k|  10k|  13 | 13 |   0 |   0 | 8.119601e+05 | 8.113589e+05 |   0.07%| unknown
  3.0s|     1 |     0 |  2613 |     - |   134M |   0 |1017 |  10k|  10k|  14 | 14 |   0 |   0 | 8.119601e+05 | 8.113589e+05 |   0.07%| unknown
  3.0s|     1 |     0 |  2682 |     - |   135M |   0 |1017 |  10k|  10k|  15 | 15 |   0 |   0 | 8.119600e+05 | 8.113589e+05 |   0.07%| unknown
  3.1s|     1 |     0 |  2722 |     - |   136M |   0 |1017 |  10k|  10k|  17 | 16 |   0 |   0 | 8.119599e+05 | 8.113589e+05 |   0.07%| unknown
  3.1s|     1 |     0 |  2761 |     - |   137M |   0 |1017 |  10k|  10k|  19 | 17 |   0 |   0 | 8.119599e+05 | 8.113589e+05 |   0.07%| unknown
d 3.6s|     1 |     0 |  3785 |     - |farkasdi|   0 |1017 |  10k|  10k|   0 | 19 |   0 |   0 | 8.119599e+05 | 8.115009e+05 |   0.06%| unknown
L15.6s|     1 |     0 |  3785 |     - |    rens|   0 |1017 |  10k|  10k|  19 | 19 |   0 |   0 | 8.119599e+05 | 8.116169e+05 |   0.04%| unknown
 20.5s|     1 |     0 |  3785 |     - |   139M |   0 |1017 |  10k|  10k|  19 | 19 |   0 |   0 | 8.119599e+05 | 8.116169e+05 |   0.04%| unknown
i20.5s|     1 |     0 |  3785 |     - |  oneopt|   0 |1017 |  10k|  10k|  19 | 19 |   0 |   0 | 8.119599e+05 | 8.116189e+05 |   0.04%| unknown
 29.5s|     1 |     2 |  3785 |     - |   139M |   0 |1017 |  10k|  10k|  19 | 21 |   0 |  35 | 8.119433e+05 | 8.116189e+05 |   0.04%| unknown
 68.8s|   100 |     5 | 19178 | 165.8 |   150M |  18 |1017 |  10k|  10k|  42 |  0 |  34 | 256 | 8.118357e+05 | 8.116189e+05 |   0.03%|  70.26%

SCIP Status        : problem is solved [optimal solution found]
Solving Time (sec) : 69.83
Solving Nodes      : 127
Primal Bound       : +8.11618923105123e+05 (133 solutions)
Dual Bound         : +8.11618923105123e+05
Gap                : 0.00 %
Solve Status: optimal
Solve Time: 69.84 seconds
